Route #1: 169 78 147 86 125 137 151 174 48 54 126 181 41 152 87 186 146 177 123 52 71 101 47 5 176 12 24 97 143 95
Route #2: 92 144 68 130 56 8 100 42 90 76 40 32 61 180 153 84 18 185 70 141 98 148 167 136 183 25 64 188
Route #3: 10 43 58 28 138 85 104 89 109 35 6 2 38 77 22 36 39 30 150 80 112 73 168
Route #4: 105 19 57 63 66 171 13 120 110 4 163 128 34 103 108 129 156 133 72 139 149 45 99 31 118 131
Route #5: 37 29 83 182 160 184 1 165 88 44 127 172
Route #6: 135 55 91 9 114 65 20 53 154 189 140 124 187 27 15 3 96 59 62 179 46
Route #7: 170 166 157 173 132 134 161 74 111 23 164 69 178 21 50 94 115 145 81 142 159 102
Route #8: 106 119 49 26 117 175 11 122 82 116 60 79 17 155 7 162 33 107 113 158 121 75 93 51 67 16 14
